% Auto-generated by scripts/generate_dzn.py
% problem_type   = regex
% instance       = regex_75
% source_json    = instances_json/1_medium_blowup/regex_75.json
% blowup         = 4.357142857142857
% representation = NFA

mode = 1;

var_count = 18;
n_constraints = 2;
Q = 9;
S = 3;
q0 = [1, 1];
F = [{9}, {5}];
weights = [6, 1, 1, 8, 8, 6, 9, 7, 2, 6, 8, 7, 3, 9, 4, 9, 9, 9];
d_dfa = array3d(1..2, 1..9, 1..3, [
  % k = 1
    0, 0, 0,
    0, 0, 0,
    0, 0, 0,
    0, 0, 0,
    0, 0, 0,
    0, 0, 0,
    0, 0, 0,
    0, 0, 0,
    0, 0, 0,

  % k = 2
    0, 0, 0,
    0, 0, 0,
    0, 0, 0,
    0, 0, 0,
    0, 0, 0,
    0, 0, 0,
    0, 0, 0,
    0, 0, 0,
    0, 0, 0
]);
d_nfa = array3d(1..2, 1..9, 1..3, [
  % k = 1
    {1}, {1}, {1, 2},
    {3}, {}, {},
    {4}, {4}, {4},
    {5}, {5}, {5},
    {6}, {6}, {6},
    {7}, {7}, {7},
    {8}, {8}, {8},
    {9}, {9}, {9},
    {}, {}, {},

  % k = 2
    {2}, {1}, {1},
    {3}, {2}, {2},
    {4}, {3}, {3},
    {5}, {4}, {4},
    {}, {5}, {5},
    {}, {}, {},
    {}, {}, {},
    {}, {}, {},
    {}, {}, {}
]);
